param set_len = 24;
param target := 866892;
set values := 55519, 1295, 120248, 93470, 74547, 72852, 91037, 12536, 88726, 42054, 8328, 129169, 58593, 67857, 4713, 80429, 128323, 122990, 70274, 51324, 29398, 69475, 40848, 100507, ;
